c nombre: 31
c densidad: 0.3
p edges 50 344
e 1 3
e 1 4
e 1 10
e 1 11
e 1 17
e 1 18
e 1 29
e 1 32
e 1 34
e 1 39
e 1 43
e 1 45
e 1 46
e 1 48
e 2 5
e 2 21
e 2 22
e 2 23
e 2 30
e 2 37
e 2 43
e 2 45
e 2 48
e 3 9
e 3 10
e 3 11
e 3 18
e 3 22
e 3 27
e 3 29
e 3 32
e 3 33
e 3 34
e 3 35
e 3 36
e 3 40
e 3 41
e 3 42
e 3 43
e 3 50
e 4 5
e 4 7
e 4 19
e 4 22
e 4 30
e 4 37
e 4 40
e 4 42
e 4 44
e 4 47
e 4 49
e 5 7
e 5 9
e 5 11
e 5 18
e 5 23
e 5 26
e 5 27
e 5 28
e 5 29
e 6 7
e 6 17
e 6 22
e 6 23
e 6 24
e 6 25
e 6 28
e 6 29
e 6 37
e 6 40
e 6 41
e 6 50
e 7 9
e 7 11
e 7 12
e 7 15
e 7 18
e 7 22
e 7 23
e 7 24
e 7 30
e 7 36
e 7 37
e 7 38
e 7 40
e 7 42
e 7 44
e 8 16
e 8 18
e 8 22
e 8 23
e 8 25
e 8 26
e 8 28
e 8 31
e 8 34
e 8 40
e 8 41
e 8 46
e 8 48
e 9 25
e 9 36
e 9 40
e 9 42
e 9 44
e 9 47
e 9 49
e 10 14
e 10 24
e 10 25
e 10 26
e 10 27
e 10 35
e 10 38
e 10 40
e 10 43
e 10 50
e 11 12
e 11 16
e 11 19
e 11 26
e 11 29
e 11 32
e 11 34
e 11 36
e 11 38
e 11 48
e 12 17
e 12 18
e 12 25
e 12 26
e 12 27
e 12 32
e 12 35
e 12 37
e 12 49
e 13 23
e 13 27
e 13 30
e 13 36
e 13 38
e 13 41
e 13 45
e 13 50
e 14 15
e 14 19
e 14 20
e 14 24
e 14 31
e 14 39
e 14 41
e 14 45
e 14 48
e 14 49
e 15 16
e 15 18
e 15 19
e 15 26
e 15 31
e 15 33
e 15 41
e 15 42
e 15 44
e 15 45
e 15 47
e 16 18
e 16 19
e 16 20
e 16 23
e 16 25
e 16 33
e 16 43
e 16 47
e 16 48
e 16 50
e 17 19
e 17 22
e 17 23
e 17 27
e 17 31
e 17 33
e 17 40
e 17 42
e 17 45
e 17 46
e 18 20
e 18 27
e 18 34
e 18 39
e 18 41
e 18 42
e 18 44
e 18 45
e 18 46
e 18 50
e 19 20
e 19 25
e 19 27
e 19 29
e 19 31
e 19 33
e 19 36
e 19 37
e 19 39
e 19 43
e 19 49
e 20 23
e 20 26
e 20 27
e 20 29
e 20 31
e 20 32
e 20 34
e 20 37
e 20 41
e 20 50
e 21 26
e 21 27
e 21 29
e 21 31
e 21 34
e 21 36
e 21 39
e 21 41
e 21 44
e 21 49
e 22 25
e 22 27
e 22 33
e 22 37
e 22 40
e 22 41
e 22 42
e 22 49
e 22 50
e 23 29
e 23 34
e 23 36
e 23 37
e 23 40
e 23 45
e 23 46
e 23 49
e 24 25
e 24 32
e 24 35
e 24 43
e 24 44
e 24 47
e 25 28
e 25 30
e 25 31
e 25 35
e 25 37
e 25 45
e 25 49
e 26 27
e 26 29
e 26 36
e 26 43
e 26 45
e 26 50
e 27 30
e 27 31
e 27 32
e 27 34
e 27 37
e 27 39
e 27 41
e 27 43
e 27 45
e 27 46
e 28 37
e 28 42
e 28 44
e 28 50
e 29 38
e 29 40
e 29 42
e 29 44
e 29 45
e 29 46
e 29 49
e 30 31
e 30 34
e 30 36
e 30 37
e 30 41
e 30 43
e 31 32
e 31 39
e 31 41
e 31 42
e 31 50
e 32 39
e 32 40
e 32 42
e 32 47
e 32 48
e 32 49
e 33 34
e 33 37
e 33 41
e 33 46
e 33 47
e 33 50
e 34 35
e 34 41
e 34 45
e 34 46
e 34 48
e 34 49
e 35 38
e 35 39
e 35 41
e 35 44
e 35 45
e 35 47
e 35 50
e 36 37
e 36 38
e 36 42
e 36 45
e 36 48
e 37 39
e 37 42
e 38 43
e 39 41
e 39 43
e 39 50
e 40 42
e 40 46
e 40 47
e 40 48
e 40 50
e 41 44
e 41 49
e 42 47
e 43 46
e 43 48
e 43 49
e 45 48
e 47 48
e 48 50
